1536827840
1537044528
1536838072
1536827840
1536827840
1536827840
1536827840
1536827840
1537000732
1536827840
1857637128
1858233984
1857827732
1857637128
1857741555
1857637050
1857637128
1857550172
1857550172
1857874749
1558838421
1558838421
1558838421
1558838421
1558838421
1558838421
1558838421
1558838421
1558838421
1558838421
1622732111
1622593515
1623106121
1622578648
1622860950
1622615185
1622593515
1622578648
1622579007
1625184934
